c ren 1 -> 1
c ren 2 -> 2
c ren 3 -> 3
c ren 4 -> 4
c ren 5 -> 5
c ren 6 -> 6
c ren 7 -> 7
c ren 8 -> 8
c ren 11 -> 9
c ren 12 -> 10
c ren 13 -> 11
c ren 14 -> 12
c ren 15 -> 13
c ren 16 -> 14
c ren 17 -> 15
c ren 18 -> 16
c ren 19 -> 17
c ren 20 -> 18
c ren 27 -> 19
c ren 28 -> 20
c ren 29 -> 21
c ren 30 -> 22
c ren 31 -> 23
c ren 32 -> 24
c ren 33 -> 25
c ren 34 -> 26
c ren 72 -> 27
c ren 76 -> 28
c ren 89 -> 29
c ren 375 -> 30
c ren 391 -> 31
c ren 392 -> 32
c ren 401 -> 33
c ren 405 -> 34
c ren 409 -> 35
c ren 442 -> 36
c ren 453 -> 37
c ren 514 -> 38
c ren 516 -> 39
c ren 529 -> 40
c ren 542 -> 41
c ren 551 -> 42
c ren 559 -> 43
c ren 564 -> 44
c ren 568 -> 45
c ren 570 -> 46
c ren 571 -> 47
c ren 572 -> 48
c ren 573 -> 49
c ren 574 -> 50
c ren 575 -> 51
c ren 576 -> 52
c ren 577 -> 53
c ren 578 -> 54
c ren 579 -> 55
c ren 580 -> 56
c ren 581 -> 57
c ren 582 -> 58
c ren 583 -> 59
c ren 584 -> 60
c ren 585 -> 61
c ren 586 -> 62
c ren 587 -> 63
c ren 588 -> 64
c ren 589 -> 65
c ren 590 -> 66
c ren 591 -> 67
c ren 646 -> 68
c ren 958 -> 69
c ren 990 -> 70
c ren 1017 -> 71
c ren 1018 -> 72
c ren 1019 -> 73
c ren 1020 -> 74
c ren 1021 -> 75
c ren 1022 -> 76
c ren 1023 -> 77
c ren 1024 -> 78
c ren 1025 -> 79
c ren 1026 -> 80
c ren 1027 -> 81
c ren 1028 -> 82
c ren 1029 -> 83
c ren 1030 -> 84
c ren 1031 -> 85
p cnf 85 549
a 1 2 3 4 5 6 7 8 9 10 11 12 13 14 15 16 17 18 19 20 21 22 23 24 25 26 51 52 53 54 55 56 57 58 59 60 61 62 63 64 65 66 67 0
d 46 51 52 53 54 55 56 57 58 59 60 61 62 63 64 65 66 67 0
d 47 57 58 0
d 48 51 52 56 0
d 49 51 52 54 55 0
d 50 51 52 53 0
e 27 28 29 30 31 32 33 34 35 36 37 38 39 40 41 42 43 44 45 68 69 70 71 72 73 74 75 76 77 78 79 80 81 82 83 84 85 0
-2 3 5 -8 -71 0
3 4 -5 -6 -7 8 -29 0
3 -4 5 -7 8 -29 0
-3 -5 6 -8 68 0
-4 -5 8 -28 29 0
11 12 -21 31 32 33 0
14 16 26 45 0
3 -5 6 -7 -8 -29 0
-15 -16 -17 18 22 -23 -24 36 0
5 6 -8 -28 29 0
3 -4 -5 -7 -8 -29 0
14 17 -43 0
-12 -14 -15 -16 17 -18 -22 23 30 -33 0
17 -20 -22 26 39 45 0
-13 -14 18 -25 -36 -37 0
-3 -4 -5 -28 0
-21 -22 -23 -70 0
-21 -22 -23 -36 0
-5 6 8 -28 68 0
-4 -5 7 -8 68 0
-4 -5 8 -28 68 0
11 -17 -21 31 32 33 0
20 21 -23 26 45 0
-3 -5 -8 27 0
3 -7 -27 0
-5 8 -27 0
-5 7 -8 27 0
-3 5 8 27 0
6 7 -8 -28 0
5 7 8 27 0
5 -8 -27 0
4 -5 -6 -8 27 68 0
-3 6 -8 -28 0
4 -6 28 0
3 -4 8 -29 68 0
5 8 28 0
3 -7 28 0
-3 -4 -28 29 0
-3 -4 -5 -8 29 0
-1 -14 -15 19 -24 37 -48 -49 -69 -71 0
8 28 -68 0
4 -5 -6 -8 27 29 0
6 7 -28 29 0
3 5 6 -7 8 -68 0
-3 6 -28 68 0
3 -5 6 -7 -8 -68 0
-4 8 -27 68 0
5 6 -8 -28 68 0
-4 7 -28 68 0
20 21 23 -69 0
8 28 -29 0
3 4 -5 -6 -7 8 -68 0
16 18 -39 0
3 4 5 -6 -7 -8 -29 0
-3 -4 -5 -8 68 0
4 5 -6 8 27 68 0
6 -27 29 0
4 -6 -27 -29 0
3 -4 5 -7 8 -68 0
16 18 26 45 0
-2 3 -4 5 -71 0
3 4 5 -6 -7 -8 -68 0
-4 5 -8 -28 68 0
14 17 26 45 0
-4 29 -68 0
-20 -22 24 26 45 0
-5 6 7 -28 0
2 -29 68 -71 0
-2 3 -4 -8 -71 0
2 29 -68 -71 0
-20 -22 -23 -36 0
15 -20 -22 26 39 45 0
-13 -14 -15 -16 -17 18 20 21 -23 -33 0
-13 -14 -15 -16 -17 18 -22 23 30 32 0
17 -35 0
-13 -14 18 34 -36 -37 0
-9 -15 -16 -18 -22 23 -24 30 36 0
-16 -17 -18 -42 0
15 -16 -18 20 21 -24 30 50 70 0
9 14 -69 0
-9 14 -15 22 -23 50 69 0
-9 14 -15 -23 -47 50 69 0
12 -16 -21 31 32 33 0
22 23 -34 0
9 10 -33 -69 0
-14 -15 -16 -17 22 23 24 -40 43 -45 0
-10 -14 15 -21 -22 23 50 69 0
-10 -14 15 -23 -47 50 69 0
13 -16 -17 33 0
20 21 23 24 -44 0
-15 -16 17 -18 -22 23 -24 30 36 0
-14 -15 -16 -18 20 21 23 24 26 -40 -45 0
22 23 24 -44 0
-9 14 -15 -16 -17 -18 26 44 -45 0
15 17 -36 0
9 14 -34 0
-21 -22 24 26 45 0
-32 -33 0
12 -16 23 32 33 0
11 12 -18 33 0
-30 -31 0
-9 -16 -17 -18 -22 23 -24 30 36 0
22 23 -36 0
-20 -30 0
-21 -30 0
-23 -30 0
-9 -15 -16 -17 -22 23 -24 30 36 0
15 -17 -18 -22 23 -24 30 50 70 0
-16 -17 -21 31 32 33 0
-15 -16 -17 18 -22 23 -24 30 36 0
15 -16 -17 -18 -22 23 -24 30 36 0
-10 -14 15 -16 -17 -18 20 21 -23 34 0
11 -17 -20 31 32 33 0
-21 -22 -23 -34 0
17 26 39 40 45 0
-15 -16 17 -18 -22 23 -24 30 70 0
-22 -31 0
23 -31 0
11 -17 -18 33 0
22 -32 0
-23 -32 0
-16 -17 -18 33 0
15 -16 -18 -22 23 -24 30 50 70 0
-18 -31 0
-16 -17 23 32 33 0
11 -17 23 32 33 0
16 -24 26 39 45 0
18 23 32 33 0
16 18 33 0
16 17 33 0
22 23 33 0
-31 -33 0
12 -16 -18 33 0
11 16 33 0
-9 14 -15 -16 -17 -18 20 21 -23 34 0
16 -31 0
-21 -22 24 -43 0
9 -15 -33 -34 0
-14 -15 -33 -34 0
-14 -15 -33 -69 0
-9 14 -15 -20 -22 23 50 69 0
33 34 0
-10 -14 15 -16 -17 -18 -21 -22 23 34 0
15 17 42 0
15 16 42 0
16 -35 0
-10 -35 0
-15 -16 -17 -18 -39 0
15 -16 -17 -18 22 -23 -24 36 0
-1 11 -14 -15 -17 -18 19 -25 37 0
-12 -14 17 -25 -36 -37 0
12 -15 -16 -18 -39 0
13 -15 -16 -17 -39 0
16 -17 -18 -22 23 -24 30 50 70 0
-14 16 -25 -37 48 -70 -71 0
-15 16 -17 -18 -22 23 -24 30 36 0
-14 15 20 21 -26 35 -41 42 43 0
-1 -14 -15 -16 -17 -18 19 -25 37 0
13 -14 -15 -16 -17 -34 0
-14 -16 -18 22 -26 -40 -41 42 43 0
-14 -37 49 69 -70 -71 0
14 17 -34 0
-14 15 -25 35 -37 -70 -71 0
10 -16 -17 -18 35 0
-14 -16 -18 20 21 -26 -40 -41 42 43 0
9 -15 -16 -17 -18 -70 0
9 -15 -16 -17 -18 -36 0
20 21 -23 -43 0
-16 17 -18 22 -23 -24 50 70 0
16 18 -70 0
-9 14 -15 -16 -17 -18 -21 -22 23 34 0
-9 -15 -16 -17 -22 23 -24 30 70 0
-15 -16 -17 18 -22 23 -24 30 70 0
16 17 -36 0
-15 16 -17 -18 20 21 -24 30 36 0
14 20 21 -24 26 44 0
-9 -15 -16 -18 20 21 -24 30 36 0
15 -16 -17 -22 23 -24 30 50 70 0
20 21 -24 26 45 0
20 21 23 30 0
-30 -70 0
-11 -14 -15 16 -17 -18 20 21 30 -33 0
-15 16 -17 -18 22 -23 -24 36 0
22 23 -70 0
-9 -16 -18 20 21 -24 30 50 70 0
-15 16 -17 -18 -22 23 -24 30 70 0
-9 -17 -18 -22 23 -24 30 50 70 0
11 16 -43 0
-13 -16 -17 18 -20 -22 -23 -24 39 42 0
-9 -15 -17 -18 22 -23 -24 70 0
-9 -15 -17 -18 20 21 -24 30 36 0
-9 -16 -17 22 -23 -24 50 70 0
18 -20 31 32 33 0
-9 -17 -18 20 21 -24 30 50 70 0
-9 -15 -17 -18 20 21 -24 30 70 0
-20 -22 -23 -34 0
-9 -15 -16 -17 22 -23 -24 70 0
-9 -16 -17 -18 22 -23 -24 36 0
15 -50 -70 0
-9 -17 -18 22 -23 -24 50 70 0
-30 -36 0
17 18 -36 0
15 18 -36 0
18 -21 31 32 33 0
15 -17 -18 20 21 -24 30 50 70 0
14 -15 -16 -17 -18 -25 -37 -70 -71 0
9 11 -17 -18 26 -38 39 45 0
-14 -25 -37 49 -70 -71 0
-15 -16 -17 -18 -37 49 69 -70 -71 0
-9 -17 -18 20 21 -23 -24 50 70 0
14 -15 -16 -17 -18 -37 69 -70 -71 0
14 -15 -16 -17 -18 -25 -36 -37 0
-11 -14 16 -17 -18 22 -26 -41 42 43 0
-9 14 -15 -16 -17 -18 -20 -22 -23 -24 26 -45 0
25 34 -37 0
-14 -34 -35 0
11 12 -20 31 32 33 0
-14 15 35 -37 69 -70 -71 0
16 -17 -18 20 21 -24 30 50 70 0
-1 12 -14 -15 -16 -18 19 -24 -34 37 0
-1 14 17 19 -24 37 -69 -71 0
-1 -14 -15 19 -25 37 -48 -49 -71 0
-1 -14 19 -25 -35 37 0
3 -4 -5 -7 -8 -68 0
-9 -15 -16 -18 -22 23 -24 30 70 0
-19 -37 0
1 -37 0
18 -35 0
-14 15 34 35 -36 -37 0
-10 -14 15 -16 -17 -18 -20 -22 23 34 0
14 22 -23 26 44 0
14 15 -69 0
-15 -16 -17 18 20 21 -24 30 36 0
23 -39 0
14 -23 24 26 44 0
14 -32 0
-9 14 -15 -16 -17 -18 -20 -22 23 34 0
10 15 -34 0
22 -24 26 45 0
-21 -22 -23 -24 -44 0
-9 14 -15 -16 -17 -18 -24 -26 -41 43 0
14 15 -34 0
23 -24 -43 0
-14 -16 -17 22 -26 -40 -41 42 43 0
22 -23 26 45 0
-9 -15 -16 -18 20 21 -24 30 70 0
9 -21 -22 26 39 45 0
-1 14 16 19 -24 37 -69 -71 0
14 18 -43 0
-10 15 -20 -22 -23 -24 39 42 0
10 -16 -17 -18 -39 0
-13 -14 -15 -16 -17 18 22 -23 31 0
18 38 0
-11 16 -17 -18 -21 -22 -23 -24 39 42 0
-11 -14 -15 16 -17 -18 20 22 23 24 43 -45 0
14 16 -43 0
16 17 26 45 0
-1 12 -14 -15 -16 -18 19 -25 37 0
16 -33 -34 0
-15 -16 17 -18 22 -23 -24 70 0
16 18 -36 0
-15 -16 -17 18 22 -23 -24 70 0
17 38 0
-10 15 -21 -22 -23 -24 39 42 0
17 18 -39 0
16 38 0
15 18 42 0
-1 19 -24 25 -34 37 0
-39 -42 0
-14 -16 -17 20 21 -26 -40 -41 42 43 0
-9 -16 -18 -22 23 -24 30 50 70 0
-9 14 -15 -16 -17 -18 20 21 -26 -41 43 0
-20 -22 -23 33 0
12 17 33 0
15 -35 40 -43 0
17 -24 26 39 45 0
17 -23 26 39 45 0
22 -24 -43 0
11 16 26 45 0
-14 -35 40 -43 0
-10 -14 15 -20 -22 23 50 69 0
-10 -14 15 -21 -22 -47 50 69 0
15 26 -38 39 45 0
17 -33 -34 0
-11 -14 -15 16 -17 -18 20 21 23 24 43 -45 0
-14 15 -24 -26 35 -41 42 43 0
-16 -17 18 22 -23 -24 50 70 0
-20 -22 23 -43 0
9 14 26 45 0
-14 38 43 -45 0
22 -23 -41 0
23 -24 26 45 0
20 21 -23 -41 0
-14 -23 26 39 45 0
9 -15 -33 -69 0
14 15 26 45 0
-16 17 -18 20 21 -24 30 50 70 0
17 18 33 0
16 18 -43 0
-16 -17 18 -22 23 -24 30 50 70 0
-10 15 -16 -17 -18 20 21 23 24 -38 0
-21 -22 38 0
-15 38 0
15 -24 26 39 45 0
-11 -14 -15 16 -17 -18 -22 23 30 -33 0
10 38 0
23 -24 -41 0
-10 -14 15 -20 -22 -47 50 69 0
-24 38 0
-23 38 0
-20 -22 38 0
22 -24 -41 0
22 -39 0
24 -39 0
14 22 -24 26 44 0
20 21 -39 0
14 18 -34 0
9 -20 -22 26 39 45 0
-9 -15 -16 -17 20 21 -24 30 36 0
-20 -22 24 -43 0
20 21 -24 -41 0
-12 -14 17 34 -36 -37 0
13 -17 -40 0
12 -18 -40 0
-13 18 40 0
17 18 26 45 0
-12 17 40 0
-17 -18 -40 0
5 6 8 -29 68 0
-14 -15 -16 40 -43 0
-23 24 26 45 0
-11 -14 16 -25 -36 -37 0
41 -43 0
15 -16 -17 20 21 -24 30 50 70 0
11 -14 -15 -17 -18 -43 0
-11 -14 16 34 -36 0
11 -15 -17 -18 -39 0
-11 -14 16 -17 -18 20 21 -26 -41 42 43 0
-23 24 -43 0
-14 -16 -17 -24 -26 -40 -41 42 43 0
9 -23 26 39 45 0
23 24 41 0
-20 -22 -23 41 0
14 -21 -22 24 26 44 0
-20 -22 23 26 45 0
-21 -22 -23 41 0
-15 17 40 -43 0
-42 -43 0
-12 -16 17 -18 -21 -22 -23 -24 39 42 0
16 17 -39 0
9 -15 -16 -17 -18 -43 0
18 -33 -34 0
-15 -16 17 -18 20 21 -24 30 70 0
14 -20 -22 23 26 44 0
-14 -15 -16 -17 20 21 23 24 -40 43 -45 0
17 -31 0
15 -17 -18 22 -23 -24 50 70 0
-14 15 22 -26 35 -41 42 43 0
-15 -42 0
-10 15 -16 -17 -18 22 23 24 -38 0
14 23 -24 26 44 0
18 26 40 45 0
-9 -15 -16 -18 22 -23 -24 70 0
22 -23 -43 0
-21 -22 23 -43 0
18 -24 26 39 45 0
9 -24 26 39 45 0
-11 -14 -15 16 -17 -18 22 -23 -33 0
24 -36 0
18 -23 26 39 45 0
16 17 -43 0
11 12 13 33 0
14 20 21 -23 26 44 0
-15 -16 -17 -18 -25 -37 49 -70 -71 0
14 -31 0
11 -14 -17 -18 26 -38 39 45 0
-20 -22 -23 -24 -44 0
-21 -22 23 26 45 0
26 -43 0
-15 16 -17 -18 20 21 -24 30 70 0
14 -20 -22 24 26 44 0
14 -21 -22 23 26 44 0
-12 -14 -15 -16 17 -18 20 21 30 -33 0
16 -21 -22 26 39 45 0
7 27 -28 68 0
14 33 0
-14 -16 26 -38 39 40 45 0
14 18 26 45 0
-1 14 18 19 -24 37 -69 -71 0
-14 -15 -16 -18 22 23 24 -40 43 -45 0
14 16 -34 0
-12 -16 17 -18 -20 -22 -23 -24 39 42 0
-14 -44 0
-9 -15 -16 -17 20 21 -24 30 70 0
18 -20 -22 26 39 45 0
15 -31 0
9 -16 26 -38 39 40 45 0
-9 14 -15 -21 -22 23 50 69 0
-15 -16 -17 18 20 21 -24 30 70 0
15 -21 -22 26 39 45 0
17 18 -43 0
-14 -21 -22 26 39 45 0
-12 -14 -15 -16 17 -18 22 -23 -33 0
16 -20 -22 26 39 45 0
-43 45 0
-14 -15 -16 -18 20 22 23 24 26 -40 -45 0
-44 45 0
-26 43 -45 0
-11 -14 16 -17 -18 -24 -26 -41 42 43 0
15 33 0
-1 19 45 -46 -71 0
-4 -5 7 -28 0
-15 18 40 -43 0
-14 -39 43 -45 0
-3 -5 6 -8 29 0
-3 -5 6 -28 0
-4 7 -8 -28 0
17 -32 0
-11 16 -17 -18 -20 -22 -23 -24 39 42 0
-5 6 7 -8 68 0
-3 27 -28 29 0
-3 -4 -8 -28 0
-5 6 7 -8 29 0
-1 -14 -15 -16 19 -24 37 -49 -69 -71 0
17 -21 -22 26 39 45 0
-5 6 8 -28 29 0
-4 8 -27 29 0
3 5 6 8 29 -68 0
6 -27 68 0
-4 -5 7 -8 29 0
5 28 -29 0
-9 14 -15 -16 -17 -18 -21 -22 -23 -24 26 -45 0
-2 3 4 -5 8 -71 0
-4 5 -8 -28 29 0
10 15 -69 0
22 23 -69 0
9 10 -33 -34 0
-22 -23 -33 47 -69 0
3 5 6 -7 8 -29 0
-9 14 -15 -21 -22 -47 50 69 0
-9 -16 -17 -18 20 21 -24 30 36 0
15 -16 -17 22 -23 -24 50 70 0
10 -14 -33 -69 0
-16 17 -18 -22 23 -24 30 50 70 0
-30 33 0
-13 -14 -15 -16 -17 18 20 21 -22 30 -33 0
13 -32 0
13 -31 0
-20 -22 -23 -70 0
-18 -32 0
20 21 -24 -43 0
-30 -32 0
13 18 33 0
11 13 -17 33 0
10 -14 -33 -34 0
-10 -14 15 22 -23 50 69 0
33 69 0
-9 14 -15 -16 -17 -18 22 -26 -41 43 0
-33 -50 -69 0
-14 16 -37 48 69 -70 -71 0
-16 -17 18 20 21 -24 30 50 70 0
-1 -14 -15 -16 19 -25 37 -49 -71 0
-14 15 -25 35 -36 -37 0
16 -23 26 39 45 0
-9 -16 -17 -22 23 -24 30 50 70 0
-9 -16 -18 22 -23 -24 50 70 0
-15 16 -17 -18 22 -23 -24 70 0
-9 -15 -17 -18 -22 23 -24 30 36 0
15 -32 0
-9 14 -15 -16 -17 -18 22 -23 34 0
-15 -16 17 -18 22 -23 -24 36 0
-9 -15 -17 -18 -22 23 -24 30 70 0
-10 -14 15 -16 -17 -18 22 -23 34 0
-9 -15 -16 -18 22 -23 -24 36 0
17 18 -70 0
-9 -15 -17 -18 22 -23 -24 36 0
-1 19 -24 -34 36 37 0
24 -70 0
-21 -22 -23 33 0
15 16 -36 0
15 -16 -18 22 -23 -24 50 70 0
-9 14 -15 -20 -22 -47 50 69 0
-13 -16 -17 18 -21 -22 -23 -24 39 42 0
16 17 -70 0
-1 -14 -15 -16 -17 -18 19 -24 -34 37 0
12 13 -16 33 0
-11 -14 -15 16 -17 -18 22 23 24 26 -45 0
18 -21 -22 26 39 45 0
-9 -15 -16 -17 22 -23 -24 36 0
-1 19 -24 25 37 -69 -71 0
14 -15 -16 -17 -18 34 -36 -37 0
-1 11 -14 -15 -17 -18 19 -24 -34 37 0
14 15 -43 0
-1 13 -14 -15 -16 -17 19 -25 37 0
-14 -16 -18 -24 -26 -40 -41 42 43 0
15 -16 -17 -18 20 21 -24 30 36 0
-15 -16 17 -18 20 21 -24 30 36 0
16 -17 -18 22 -23 -24 50 70 0
-1 19 -25 37 70 -71 0
16 -32 0
-14 -20 -22 26 39 45 0
-9 -16 -17 20 21 -24 30 50 70 0
-14 -24 26 39 45 0
5 28 -68 0
4 5 -6 8 27 29 0
-16 -17 -20 31 32 33 0
25 -37 69 -71 0
-1 19 -25 36 37 0
20 21 23 -33 -34 0
-1 19 -45 46 -71 0
-1 19 -24 37 -69 70 -71 0
-18 -51 -72 0
18 51 -72 0
-17 -52 -73 0
17 52 -73 0
-16 -53 -74 0
16 53 -74 0
-12 -54 -75 0
12 54 -75 0
-13 -55 -76 0
13 55 -76 0
-11 -56 -77 0
11 56 -77 0
-21 -57 -78 0
21 57 -78 0
-20 -58 -79 0
20 58 -79 0
-14 -59 -80 0
14 59 -80 0
-9 -60 -81 0
9 60 -81 0
-26 -61 -82 0
26 61 -82 0
-15 -62 -83 0
15 62 -83 0
-22 -63 -84 0
22 63 -84 0
-24 -64 -85 0
24 64 -85 0
-10 -23 41 -65 -66 67 71 72 73 74 75 76 77 78 79 80 81 82 83 84 85 0
10 23 41 65 66 67 71 72 73 74 75 76 77 78 79 80 81 82 83 84 85 0
10 -23 -41 -65 66 -67 71 72 73 74 75 76 77 78 79 80 81 82 83 84 85 0
-10 -23 -41 -65 -66 -67 71 72 73 74 75 76 77 78 79 80 81 82 83 84 85 0
-10 23 -41 65 -66 -67 71 72 73 74 75 76 77 78 79 80 81 82 83 84 85 0
-10 23 41 65 -66 67 71 72 73 74 75 76 77 78 79 80 81 82 83 84 85 0
10 -23 41 -65 66 67 71 72 73 74 75 76 77 78 79 80 81 82 83 84 85 0
15 -23 26 39 45 0
10 23 -41 65 66 -67 71 72 73 74 75 76 77 78 79 80 81 82 83 84 85 0
12 -16 -20 31 32 33 0
